
Gurobi 11.0.0 (linux64) logging started Mon Apr 15 08:48:48 2024

Set parameter LogFile to value "/lustre1/scratch/348/vsc34888/JointResearch/05.Models/06.Benchmarking/L.Cont_Investments_per_hour/RTS24_ByStages_nc30/openStarNet_RTS24_ByStages_nc30.log"
Set parameter Method to value 2
Set parameter MIPFocus to value 1
Set parameter Presolve to value 2
Set parameter RINS to value 100
Set parameter MIPGap to value 0.01
Set parameter Threads to value 36
Set parameter TimeLimit to value 259200
Set parameter IterationLimit to value 760000000
Gurobi Optimizer version 11.0.0 build v11.0.0rc2 (linux64 - "Rocky Linux 8.8 (Green Obsidian)")

CPU model: Intel(R) Xeon(R) Gold 6140 CPU @ 2.30GHz, instruction set [SSE2|AVX|AVX2|AVX512]
Thread count: 36 physical cores, 36 logical processors, using up to 36 threads

Optimize a model with 11673 rows, 6932 columns and 30935 nonzeros
Model fingerprint: 0x815a32d1
Variable types: 6902 continuous, 30 integer (30 binary)
Coefficient statistics:
  Matrix range     [3e-02, 1e+03]
  Objective range  [1e+00, 1e+00]
  Bounds range     [4e-04, 3e+00]
  RHS range        [4e-04, 3e+00]
Presolve removed 6270 rows and 3250 columns
Presolve time: 0.05s
Presolved: 5403 rows, 3682 columns, 19015 nonzeros
Variable types: 3652 continuous, 30 integer (30 binary)
Found heuristic solution: objective 334.2246271
Root relaxation presolved: 5403 rows, 3682 columns, 19015 nonzeros

Root barrier log...

Ordering time: 0.00s

Barrier statistics:
 Dense cols : 30
 AA' NZ     : 4.000e+04
 Factor NZ  : 1.045e+05 (roughly 5 MB of memory)
 Factor Ops : 2.224e+06 (less than 1 second per iteration)
 Threads    : 36

                  Objective                Residual
Iter       Primal          Dual         Primal    Dual     Compl     Time
   0   7.75327686e+05 -3.40203272e+07  6.19e+00 2.79e+02  8.71e+03     0s
   1   1.16014555e+05 -9.63513599e+06  7.94e-01 7.40e-10  1.25e+03     0s
   2   3.73978255e+04 -5.33630052e+06  1.45e-01 1.75e-09  5.22e+02     0s
   3   1.92044956e+04 -3.88289240e+05  7.54e-04 3.57e-11  3.59e+01     0s
   4   5.22856031e+03 -2.98817203e+04  3.16e-05 7.51e-12  3.09e+00     0s
   5   6.36867106e+02 -3.48442105e+03  5.26e-07 1.82e-12  3.63e-01     0s
   6   3.76923836e+02 -8.27595661e+02  6.35e-08 1.82e-12  1.06e-01     0s
   7   2.63437540e+02 -1.44983457e+02  2.39e-08 1.82e-12  3.60e-02     0s
   8   2.06290598e+02  4.31916946e+01  9.92e-09 1.82e-12  1.44e-02     0s
   9   1.81193775e+02  9.97700747e+01  4.61e-09 1.82e-12  7.17e-03     0s
  10   1.75332020e+02  1.41938763e+02  3.29e-09 3.64e-12  2.94e-03     0s
  11   1.65443654e+02  1.54847620e+02  1.15e-09 1.82e-12  9.33e-04     0s
  12   1.62426976e+02  1.58767791e+02  5.15e-10 3.64e-12  3.22e-04     0s
  13   1.61690569e+02  1.59198537e+02  3.48e-10 2.73e-12  2.19e-04     0s
  14   1.60921606e+02  1.59502357e+02  1.86e-10 1.82e-12  1.25e-04     0s
  15   1.60314284e+02  1.59794534e+02  5.80e-11 1.82e-12  4.58e-05     0s
  16   1.60142395e+02  1.59982581e+02  3.47e-11 1.82e-12  1.41e-05     0s
  17   1.60071555e+02  1.60001895e+02  1.41e-10 1.82e-12  6.14e-06     0s
  18   1.60052963e+02  1.60022242e+02  3.84e-10 3.64e-12  2.71e-06     0s
  19   1.60035474e+02  1.60028628e+02  2.16e-09 1.82e-12  6.03e-07     0s
  20   1.60033341e+02  1.60031847e+02  5.97e-09 3.64e-12  1.32e-07     0s
  21   1.60032597e+02  1.60032526e+02  1.79e-09 1.82e-12  6.24e-09     0s
  22   1.60032593e+02  1.60032592e+02  3.82e-10 3.64e-12  8.16e-11     0s

Barrier solved model in 22 iterations and 0.27 seconds (0.17 work units)
Optimal objective 1.60032593e+02


Root relaxation: objective 1.600326e+02, 679 iterations, 0.20 seconds (0.09 work units)

    Nodes    |    Current Node    |     Objective Bounds      |     Work
 Expl Unexpl |  Obj  Depth IntInf | Incumbent    BestBd   Gap | It/Node Time

     0     0  160.03259    0   18  334.22463  160.03259  52.1%     -    0s
     0     0  162.19535    0   18  334.22463  162.19535  51.5%     -    0s
H    0     0                     320.8935021  162.19535  49.5%     -    0s
H    0     0                     249.0264824  162.20632  34.9%     -    0s
     0     0  162.20632    0   19  249.02648  162.20632  34.9%     -    0s
     0     0  162.20632    0   19  249.02648  162.20632  34.9%     -    0s
     0     0  163.04472    0   16  249.02648  163.04472  34.5%     -    0s
     0     0  163.17603    0   15  249.02648  163.17603  34.5%     -    0s
     0     0  163.58062    0   17  249.02648  163.58062  34.3%     -    0s
     0     0  163.58226    0   17  249.02648  163.58226  34.3%     -    1s
     0     0  163.58450    0   14  249.02648  163.58450  34.3%     -    1s
     0     0  163.58491    0   17  249.02648  163.58491  34.3%     -    1s
     0     0  164.96202    0   17  249.02648  164.96202  33.8%     -    1s
     0     0  164.97886    0   17  249.02648  164.97886  33.8%     -    1s
H    0     0                     244.1710676  166.22386  31.9%     -    1s
     0     0  166.23085    0   17  244.17107  166.23085  31.9%     -    1s
H    0     0                     197.1502172  166.23085  15.7%     -    9s
     0     2  166.23085    0   17  197.15022  166.23085  15.7%     -    9s
H   99   134                     194.9612614  170.26649  12.7%   268   16s
H  102   134                     194.8073011  170.26649  12.6%   264   16s
H  122   134                     194.8073008  170.26649  12.6%   239   16s
  1306   689  180.54512   14   11  194.80730  171.63732  11.9%   160   21s
  2595   990     cutoff   15       194.80730  173.04104  11.2%   148   29s
  2766  1013  192.45487   15   11  194.80730  173.70277  10.8%   148   30s
  3000  1038  180.80018   13   12  194.80730  173.70277  10.8%   147   39s
H 3054  1038                     194.8072970  173.70277  10.8%   147   39s
  3088  1078  192.89310   14   12  194.80730  173.70277  10.8%   147   45s
H 3300  1078                     194.8072890  173.70277  10.8%   146   45s
H 3379  1078                     194.8072890  173.70277  10.8%   145   45s
  6377  1659  192.05902   15    7  194.80729  182.19562  6.47%   135   52s
  9669  2004  191.81769   15   17  194.80729  184.21432  5.44%   126   62s
  9683  2013  190.63846   19   15  194.80729  184.21432  5.44%   126   68s
  9782  2110  184.21432   20   15  194.80729  184.21432  5.44%   128   75s
  9983  2206  190.00951   22   15  194.80729  184.21432  5.44%   129   80s
 10998  2203  191.29834   26   12  194.80729  184.21432  5.44%   130   86s
 11398  2179  191.44617   27   10  194.80729  184.21432  5.44%   130   92s
 18095  1335  192.22535   26    7  194.80729  186.26327  4.39%   120  100s
 19788  1311     cutoff   24       194.80729  188.30206  3.34%   117  106s
 21189  1184  192.20039   25    7  194.80729  188.98917  2.99%   114  111s

Cutting planes:
  Gomory: 6
  Implied bound: 353
  MIR: 172
  Flow cover: 281
  RLT: 24
  Relax-and-lift: 21

Explored 26427 nodes (2738772 simplex iterations) in 113.52 seconds (129.00 work units)
Thread count was 36 (of 36 available processors)

Solution count 8: 194.807 194.807 194.961 ... 334.225

Optimal solution found (tolerance 1.00e-02)
Best objective 1.948072889793e+02, best bound 1.936314388201e+02, gap 0.6036%

Gurobi 11.0.0 (linux64) logging started Mon Apr 15 08:50:42 2024

Set parameter LogFile to value "/lustre1/scratch/348/vsc34888/JointResearch/05.Models/06.Benchmarking/L.Cont_Investments_per_hour/RTS24_ByStages_nc30/openStarNet_RTS24_ByStages_nc30.log"
Set parameter Method to value 2
Set parameter MIPFocus to value 1
Set parameter Presolve to value 2
Set parameter RINS to value 100
Set parameter MIPGap to value 0.01
Set parameter Threads to value 36
Set parameter TimeLimit to value 259200
Set parameter IterationLimit to value 760000000
Gurobi Optimizer version 11.0.0 build v11.0.0rc2 (linux64 - "Rocky Linux 8.8 (Green Obsidian)")

CPU model: Intel(R) Xeon(R) Gold 6140 CPU @ 2.30GHz, instruction set [SSE2|AVX|AVX2|AVX512]
Thread count: 36 physical cores, 36 logical processors, using up to 36 threads

Optimize a model with 11673 rows, 6902 columns and 27305 nonzeros
Model fingerprint: 0x86800bc4
Coefficient statistics:
  Matrix range     [3e-02, 1e+03]
  Objective range  [1e+00, 1e+00]
  Bounds range     [4e-04, 3e+00]
  RHS range        [4e-04, 5e+01]
Presolve removed 9930 rows and 4000 columns
Presolve time: 0.01s
Presolved: 1743 rows, 2962 columns, 7915 nonzeros

Ordering time: 0.00s

Barrier statistics:
 AA' NZ     : 4.190e+03
 Factor NZ  : 1.362e+04 (roughly 1 MB of memory)
 Factor Ops : 1.855e+05 (less than 1 second per iteration)
 Threads    : 1

                  Objective                Residual
Iter       Primal          Dual         Primal    Dual     Compl     Time
   0   1.81171949e+06 -3.22578079e+07  5.83e+00 3.60e+03  4.63e+04     0s
   1   1.21843642e+05 -1.91492602e+07  4.02e-01 4.66e-11  6.18e+03     0s
   2   6.62626696e+04 -5.33542337e+06  1.75e-01 1.60e-10  1.56e+03     0s
   3   3.18691940e+04 -9.92933692e+05  2.01e-02 6.55e-11  2.37e+02     0s
   4   1.93645972e+04 -1.38534367e+05  9.28e-04 4.37e-11  3.43e+01     0s
   5   8.94639704e+03 -2.11399017e+04  2.28e-04 4.02e-10  6.52e+00     0s
   6   7.81956048e+02 -2.31323930e+03  7.82e-06 1.46e-11  6.70e-01     0s
   7   4.55268295e+02 -1.20602215e+03  1.25e-07 1.46e-11  3.60e-01     0s
   8   3.08757154e+02 -6.76474115e+01  7.64e-09 1.46e-11  8.15e-02     0s
   9   2.32770015e+02  8.52816269e+01  1.63e-09 1.46e-11  3.19e-02     0s
  10   2.11115739e+02  1.49898201e+02  6.51e-10 1.46e-11  1.33e-02     0s
  11   2.00451226e+02  1.77307991e+02  2.09e-10 1.46e-11  5.01e-03     0s
  12   1.95561597e+02  1.93767793e+02  1.97e-11 1.46e-11  3.88e-04     0s
  13   1.94845493e+02  1.94775951e+02  8.74e-13 1.46e-11  1.51e-05     0s
  14   1.94807339e+02  1.94807270e+02  3.89e-13 2.18e-11  1.51e-08     0s
  15   1.94807301e+02  1.94807301e+02  3.25e-13 1.46e-11  1.51e-11     0s
  16   1.94807301e+02  1.94807301e+02  2.82e-13 1.46e-11  1.51e-14     0s

Barrier solved model in 16 iterations and 0.04 seconds (0.03 work units)
Optimal objective 1.94807301e+02

Crossover log...

     353 DPushes remaining with DInf 0.0000000e+00                 0s
       0 DPushes remaining with DInf 0.0000000e+00                 0s

      70 PPushes remaining with PInf 0.0000000e+00                 0s
       0 PPushes remaining with PInf 0.0000000e+00                 0s

  Push phase complete: Pinf 0.0000000e+00, Dinf 3.3006725e-12      0s

Iteration    Objective       Primal Inf.    Dual Inf.      Time
      82    1.9480730e+02   0.000000e+00   0.000000e+00      0s

Use crossover to convert LP symmetric solution to basic solution...
Crossover log...

      29 PPushes remaining with PInf 0.0000000e+00                 0s
       0 PPushes remaining with PInf 0.0000000e+00                 0s

  Push phase complete: Pinf 0.0000000e+00, Dinf 1.0780919e-12      0s

Iteration    Objective       Primal Inf.    Dual Inf.      Time
     114    1.9480730e+02   0.000000e+00   0.000000e+00      0s

Solved in 114 iterations and 0.05 seconds (0.04 work units)
Optimal objective  1.948073011e+02
